
Gurobi 8.0.1 (mac64, Python) logging started Fri Oct  5 14:16:03 2018

Academic license - for non-commercial use only

Gurobi 8.0.1 (mac64, Python) logging started Fri Oct  5 14:16:15 2018

Academic license - for non-commercial use only

Gurobi 8.0.1 (mac64, Python) logging started Fri Oct  5 14:16:27 2018

Academic license - for non-commercial use only

Gurobi 8.0.1 (mac64, Python) logging started Fri Oct  5 14:52:16 2018

Academic license - for non-commercial use only

Gurobi 8.0.1 (mac64, Python) logging started Fri Oct  5 14:52:31 2018

Academic license - for non-commercial use only

Gurobi 8.0.1 (mac64, Python) logging started Fri Oct  5 14:59:03 2018

Academic license - for non-commercial use only

Gurobi 8.0.1 (mac64, Python) logging started Fri Oct  5 15:01:10 2018

Academic license - for non-commercial use only

Gurobi 8.0.1 (mac64, Python) logging started Fri Oct  5 15:01:36 2018

Academic license - for non-commercial use only

Gurobi 8.0.1 (mac64, Python) logging started Fri Oct  5 15:03:28 2018

Academic license - for non-commercial use only

Gurobi 8.0.1 (mac64, Python) logging started Fri Oct  5 15:03:47 2018

Academic license - for non-commercial use only

Gurobi 8.0.1 (mac64, Python) logging started Fri Oct  5 15:11:31 2018

Academic license - for non-commercial use only

Gurobi 8.0.1 (mac64, Python) logging started Fri Oct  5 15:12:04 2018

Academic license - for non-commercial use only

Gurobi 8.0.1 (mac64, Python) logging started Fri Oct  5 15:13:47 2018

Academic license - for non-commercial use only

Gurobi 8.0.1 (mac64, Python) logging started Fri Oct  5 15:14:18 2018

Academic license - for non-commercial use only

Gurobi 8.0.1 (mac64, Python) logging started Fri Oct  5 15:15:06 2018

Academic license - for non-commercial use only

Gurobi 8.0.1 (mac64, Python) logging started Fri Oct  5 15:16:28 2018

Academic license - for non-commercial use only
Optimize a model with 26 rows, 80 columns and 240 nonzeros
Variable types: 0 continuous, 80 integer (80 binary)
Coefficient statistics:
  Matrix range     [1e+00, 1e+00]
  Objective range  [0e+00, 0e+00]
  Bounds range     [1e+00, 1e+00]
  RHS range        [1e+00, 8e+00]
Presolve time: 0.00s

Explored 0 nodes (0 simplex iterations) in 0.00 seconds
Thread count was 1 (of 8 available processors)

Solution count 0

Model is infeasible
Best objective -, best bound -, gap -

Gurobi 8.0.1 (mac64, Python) logging started Fri Oct  5 15:28:15 2018

Academic license - for non-commercial use only

Gurobi 8.0.1 (mac64, Python) logging started Fri Oct  5 15:28:32 2018

Academic license - for non-commercial use only

Gurobi 8.0.1 (mac64, Python) logging started Fri Oct  5 15:29:12 2018

Academic license - for non-commercial use only

Gurobi 8.0.1 (mac64, Python) logging started Fri Oct  5 15:33:22 2018

Academic license - for non-commercial use only

Gurobi 8.0.1 (mac64, Python) logging started Fri Oct  5 15:35:08 2018

Academic license - for non-commercial use only

Gurobi 8.0.1 (mac64, Python) logging started Fri Oct  5 15:42:50 2018

Academic license - for non-commercial use only

Gurobi 8.0.1 (mac64, Python) logging started Fri Oct  5 15:43:50 2018

Academic license - for non-commercial use only

Gurobi 8.0.1 (mac64, Python) logging started Fri Oct  5 15:44:38 2018

Academic license - for non-commercial use only

Gurobi 8.0.1 (mac64, Python) logging started Fri Oct  5 15:45:09 2018

Academic license - for non-commercial use only

Gurobi 8.0.1 (mac64, Python) logging started Fri Oct  5 15:45:36 2018

Academic license - for non-commercial use only

Gurobi 8.0.1 (mac64, Python) logging started Fri Oct  5 15:45:51 2018

Academic license - for non-commercial use only

Gurobi 8.0.1 (mac64, Python) logging started Fri Oct  5 15:46:05 2018

Academic license - for non-commercial use only

Gurobi 8.0.1 (mac64, Python) logging started Fri Oct  5 15:46:34 2018

Academic license - for non-commercial use only
Optimize a model with 26 rows, 80 columns and 240 nonzeros
Model has 440 quadratic objective terms
Variable types: 0 continuous, 80 integer (80 binary)
Coefficient statistics:
  Matrix range     [1e+00, 1e+00]
  Objective range  [3e+01, 1e+02]
  QObjective range [3e+01, 7e+01]
  Bounds range     [1e+00, 1e+00]
  RHS range        [1e+00, 8e+00]
Presolve time: 0.00s

Explored 0 nodes (0 simplex iterations) in 0.00 seconds
Thread count was 1 (of 8 available processors)

Solution count 0

Model is infeasible
Best objective -, best bound -, gap -

Gurobi 8.0.1 (mac64, Python) logging started Fri Oct  5 15:47:17 2018

Academic license - for non-commercial use only

Gurobi 8.0.1 (mac64, Python) logging started Fri Oct  5 15:47:22 2018

Academic license - for non-commercial use only
Optimize a model with 26 rows, 80 columns and 240 nonzeros
Model has 440 quadratic objective terms
Variable types: 0 continuous, 80 integer (80 binary)
Coefficient statistics:
  Matrix range     [1e+00, 1e+00]
  Objective range  [2e+01, 1e+02]
  QObjective range [3e+01, 6e+01]
  Bounds range     [1e+00, 1e+00]
  RHS range        [1e+00, 8e+00]
Presolve time: 0.00s

Explored 0 nodes (0 simplex iterations) in 0.00 seconds
Thread count was 1 (of 8 available processors)

Solution count 0

Model is infeasible
Best objective -, best bound -, gap -

Gurobi 8.0.1 (mac64, Python) logging started Fri Oct  5 16:01:35 2018

Academic license - for non-commercial use only

Gurobi 8.0.1 (mac64, Python) logging started Fri Oct  5 16:02:02 2018

Academic license - for non-commercial use only

Gurobi 8.0.1 (mac64, Python) logging started Fri Oct  5 16:02:56 2018

Academic license - for non-commercial use only

Gurobi 8.0.1 (mac64, Python) logging started Fri Oct  5 16:03:06 2018

Academic license - for non-commercial use only

Gurobi 8.0.1 (mac64, Python) logging started Fri Oct  5 16:03:17 2018

Academic license - for non-commercial use only
Optimize a model with 58 rows, 400 columns and 800 nonzeros
Model has 9800 quadratic objective terms
Variable types: 0 continuous, 400 integer (400 binary)
Coefficient statistics:
  Matrix range     [1e+00, 1e+00]
  Objective range  [0e+00, 0e+00]
  QObjective range [8e+00, 7e+04]
  Bounds range     [1e+00, 1e+00]
  RHS range        [1e+00, 1e+00]
Presolve time: 0.00s

Explored 0 nodes (0 simplex iterations) in 0.00 seconds
Thread count was 1 (of 8 available processors)

Solution count 0

Model is infeasible
Best objective -, best bound -, gap -

Gurobi 8.0.1 (mac64, Python) logging started Fri Oct  5 16:04:42 2018

Academic license - for non-commercial use only
Optimize a model with 58 rows, 400 columns and 800 nonzeros
Model has 9800 quadratic objective terms
Variable types: 0 continuous, 400 integer (400 binary)
Coefficient statistics:
  Matrix range     [1e+00, 1e+00]
  Objective range  [0e+00, 0e+00]
  QObjective range [2e+01, 6e+04]
  Bounds range     [1e+00, 1e+00]
  RHS range        [1e+00, 1e+00]
Presolve time: 0.00s

Explored 0 nodes (0 simplex iterations) in 0.00 seconds
Thread count was 1 (of 8 available processors)

Solution count 0

Model is infeasible
Best objective -, best bound -, gap -

Gurobi 8.0.1 (mac64, Python) logging started Fri Oct  5 16:04:49 2018

Academic license - for non-commercial use only
Optimize a model with 58 rows, 400 columns and 800 nonzeros
Model has 9800 quadratic objective terms
Variable types: 0 continuous, 400 integer (400 binary)
Coefficient statistics:
  Matrix range     [1e+00, 1e+00]
  Objective range  [0e+00, 0e+00]
  QObjective range [4e+00, 6e+04]
  Bounds range     [1e+00, 1e+00]
  RHS range        [1e+00, 1e+00]
Presolve time: 0.00s

Explored 0 nodes (0 simplex iterations) in 0.00 seconds
Thread count was 1 (of 8 available processors)

Solution count 0

Model is infeasible
Best objective -, best bound -, gap -

Gurobi 8.0.1 (mac64, Python) logging started Fri Oct  5 16:07:12 2018

Academic license - for non-commercial use only
Optimize a model with 58 rows, 400 columns and 800 nonzeros
Model has 9792 quadratic objective terms
Variable types: 0 continuous, 400 integer (400 binary)
Coefficient statistics:
  Matrix range     [1e+00, 1e+00]
  Objective range  [0e+00, 0e+00]
  QObjective range [4e+00, 6e+04]
  Bounds range     [1e+00, 1e+00]
  RHS range        [1e+00, 1e+00]
Presolve time: 0.00s

Explored 0 nodes (0 simplex iterations) in 0.00 seconds
Thread count was 1 (of 8 available processors)

Solution count 0

Model is infeasible
Best objective -, best bound -, gap -

Gurobi 8.0.1 (mac64, Python) logging started Fri Oct  5 16:08:33 2018

Academic license - for non-commercial use only
Optimize a model with 58 rows, 400 columns and 800 nonzeros
Model has 9800 quadratic objective terms
Variable types: 0 continuous, 400 integer (400 binary)
Coefficient statistics:
  Matrix range     [1e+00, 1e+00]
  Objective range  [0e+00, 0e+00]
  QObjective range [4e+01, 6e+04]
  Bounds range     [1e+00, 1e+00]
  RHS range        [1e+00, 1e+00]
Presolve time: 0.00s

Explored 0 nodes (0 simplex iterations) in 0.00 seconds
Thread count was 1 (of 8 available processors)

Solution count 0

Model is infeasible
Best objective -, best bound -, gap -

Gurobi 8.0.1 (mac64, Python) logging started Fri Oct  5 16:08:45 2018

Academic license - for non-commercial use only
Optimize a model with 58 rows, 400 columns and 800 nonzeros
Model has 9800 quadratic objective terms
Variable types: 0 continuous, 400 integer (400 binary)
Coefficient statistics:
  Matrix range     [1e+00, 1e+00]
  Objective range  [0e+00, 0e+00]
  QObjective range [2e+01, 6e+04]
  Bounds range     [1e+00, 1e+00]
  RHS range        [1e+00, 1e+00]
Presolve time: 0.00s

Explored 0 nodes (0 simplex iterations) in 0.00 seconds
Thread count was 1 (of 8 available processors)

Solution count 0

Model is infeasible
Best objective -, best bound -, gap -

Gurobi 8.0.1 (mac64, Python) logging started Fri Oct  5 16:09:55 2018

Academic license - for non-commercial use only
Optimize a model with 58 rows, 400 columns and 800 nonzeros
Model has 9800 quadratic objective terms
Variable types: 0 continuous, 400 integer (400 binary)
Coefficient statistics:
  Matrix range     [1e+00, 1e+00]
  Objective range  [0e+00, 0e+00]
  QObjective range [4e+00, 5e+04]
  Bounds range     [1e+00, 1e+00]
  RHS range        [1e+00, 1e+00]
Presolve time: 0.00s

Explored 0 nodes (0 simplex iterations) in 0.00 seconds
Thread count was 1 (of 8 available processors)

Solution count 0

Model is infeasible
Best objective -, best bound -, gap -
